NAME : custom
COMMENT : Custom points
TYPE : TSP
DIMENSION : 14
EDGE_WEIGHT_TYPE : EUC_2D
NODE_COORD_SECTION
1 43 8
2 19 44
3 21 51
4 45 50
5 82 59
6 65 87
7 47 45
8 58 30
9 62 20
10 88 29
11 52 69
12 35 80
13 28 70
14 34 15
EOF
